c description: Random 3-CNF over 25 variables and 20 clauses
c generator: CNFgen (0.9.0)
c copyright: (C) 2012-2020 Massimo Lauria <massimo.lauria@uniroma1.it>
c url: https://massimolauria.net/cnfgen
c command line: cnfgen -o 3SAT_n_25_m_20 randkcnf 3 25 20
c
p cnf 25 20
8 15 18 0
-9 20 -7 0
4 12 -25 0
2 -16 -25 0
-10 -25 -3 0
1 20 -23 0
6 14 -7 0
5 13 17 0
5 8 15 0
6 -10 -12 0
4 -21 -19 0
9 13 -24 0
5 11 -7 0
5 -6 -12 0
-2 -10 -19 0
8 -18 -25 0
12 -13 -20 0
-5 8 -10 0
2 -9 22 0
-4 -5 16 0